p cnf 20 20
8 7 -6 0
-5 12 -14 0
-3 -19 -11 0
-14 -10 19 0
15 3 12 0
9 -7 -16 0
15 -11 -4 0
3 -5 -15 0
4 3 9 0
-20 4 7 0
17 8 14 0
11 8 -16 0
-16 9 14 0
3 2 20 0
6 17 -5 0
4 15 11 0
3 -4 6 0
-10 -2 5 0
8 9 -18 0
8 -20 17 0
